c created by edge2cnf
p cnf 500 3100
-1 -2 0
-1 -3 0
-1 -4 0
-1 -5 0
-2 -3 0
-2 -4 0
-2 -5 0
-3 -4 0
-3 -5 0
-4 -5 0
1 2 3 4 5 0
-6 -7 0
-6 -8 0
-6 -9 0
-6 -10 0
-7 -8 0
-7 -9 0
-7 -10 0
-8 -9 0
-8 -10 0
-9 -10 0
6 7 8 9 10 0
-11 -12 0
-11 -13 0
-11 -14 0
-11 -15 0
-12 -13 0
-12 -14 0
-12 -15 0
-13 -14 0
-13 -15 0
-14 -15 0
11 12 13 14 15 0
-16 -17 0
-16 -18 0
-16 -19 0
-16 -20 0
-17 -18 0
-17 -19 0
-17 -20 0
-18 -19 0
-18 -20 0
-19 -20 0
16 17 18 19 20 0
-21 -22 0
-21 -23 0
-21 -24 0
-21 -25 0
-22 -23 0
-22 -24 0
-22 -25 0
-23 -24 0
-23 -25 0
-24 -25 0
21 22 23 24 25 0
-26 -27 0
-26 -28 0
-26 -29 0
-26 -30 0
-27 -28 0
-27 -29 0
-27 -30 0
-28 -29 0
-28 -30 0
-29 -30 0
26 27 28 29 30 0
-31 -32 0
-31 -33 0
-31 -34 0
-31 -35 0
-32 -33 0
-32 -34 0
-32 -35 0
-33 -34 0
-33 -35 0
-34 -35 0
31 32 33 34 35 0
-36 -37 0
-36 -38 0
-36 -39 0
-36 -40 0
-37 -38 0
-37 -39 0
-37 -40 0
-38 -39 0
-38 -40 0
-39 -40 0
36 37 38 39 40 0
-41 -42 0
-41 -43 0
-41 -44 0
-41 -45 0
-42 -43 0
-42 -44 0
-42 -45 0
-43 -44 0
-43 -45 0
-44 -45 0
41 42 43 44 45 0
-46 -47 0
-46 -48 0
-46 -49 0
-46 -50 0
-47 -48 0
-47 -49 0
-47 -50 0
-48 -49 0
-48 -50 0
-49 -50 0
46 47 48 49 50 0
-51 -52 0
-51 -53 0
-51 -54 0
-51 -55 0
-52 -53 0
-52 -54 0
-52 -55 0
-53 -54 0
-53 -55 0
-54 -55 0
51 52 53 54 55 0
-56 -57 0
-56 -58 0
-56 -59 0
-56 -60 0
-57 -58 0
-57 -59 0
-57 -60 0
-58 -59 0
-58 -60 0
-59 -60 0
56 57 58 59 60 0
-61 -62 0
-61 -63 0
-61 -64 0
-61 -65 0
-62 -63 0
-62 -64 0
-62 -65 0
-63 -64 0
-63 -65 0
-64 -65 0
61 62 63 64 65 0
-66 -67 0
-66 -68 0
-66 -69 0
-66 -70 0
-67 -68 0
-67 -69 0
-67 -70 0
-68 -69 0
-68 -70 0
-69 -70 0
66 67 68 69 70 0
-71 -72 0
-71 -73 0
-71 -74 0
-71 -75 0
-72 -73 0
-72 -74 0
-72 -75 0
-73 -74 0
-73 -75 0
-74 -75 0
71 72 73 74 75 0
-76 -77 0
-76 -78 0
-76 -79 0
-76 -80 0
-77 -78 0
-77 -79 0
-77 -80 0
-78 -79 0
-78 -80 0
-79 -80 0
76 77 78 79 80 0
-81 -82 0
-81 -83 0
-81 -84 0
-81 -85 0
-82 -83 0
-82 -84 0
-82 -85 0
-83 -84 0
-83 -85 0
-84 -85 0
81 82 83 84 85 0
-86 -87 0
-86 -88 0
-86 -89 0
-86 -90 0
-87 -88 0
-87 -89 0
-87 -90 0
-88 -89 0
-88 -90 0
-89 -90 0
86 87 88 89 90 0
-91 -92 0
-91 -93 0
-91 -94 0
-91 -95 0
-92 -93 0
-92 -94 0
-92 -95 0
-93 -94 0
-93 -95 0
-94 -95 0
91 92 93 94 95 0
-96 -97 0
-96 -98 0
-96 -99 0
-96 -100 0
-97 -98 0
-97 -99 0
-97 -100 0
-98 -99 0
-98 -100 0
-99 -100 0
96 97 98 99 100 0
-101 -102 0
-101 -103 0
-101 -104 0
-101 -105 0
-102 -103 0
-102 -104 0
-102 -105 0
-103 -104 0
-103 -105 0
-104 -105 0
101 102 103 104 105 0
-106 -107 0
-106 -108 0
-106 -109 0
-106 -110 0
-107 -108 0
-107 -109 0
-107 -110 0
-108 -109 0
-108 -110 0
-109 -110 0
106 107 108 109 110 0
-111 -112 0
-111 -113 0
-111 -114 0
-111 -115 0
-112 -113 0
-112 -114 0
-112 -115 0
-113 -114 0
-113 -115 0
-114 -115 0
111 112 113 114 115 0
-116 -117 0
-116 -118 0
-116 -119 0
-116 -120 0
-117 -118 0
-117 -119 0
-117 -120 0
-118 -119 0
-118 -120 0
-119 -120 0
116 117 118 119 120 0
-121 -122 0
-121 -123 0
-121 -124 0
-121 -125 0
-122 -123 0
-122 -124 0
-122 -125 0
-123 -124 0
-123 -125 0
-124 -125 0
121 122 123 124 125 0
-126 -127 0
-126 -128 0
-126 -129 0
-126 -130 0
-127 -128 0
-127 -129 0
-127 -130 0
-128 -129 0
-128 -130 0
-129 -130 0
126 127 128 129 130 0
-131 -132 0
-131 -133 0
-131 -134 0
-131 -135 0
-132 -133 0
-132 -134 0
-132 -135 0
-133 -134 0
-133 -135 0
-134 -135 0
131 132 133 134 135 0
-136 -137 0
-136 -138 0
-136 -139 0
-136 -140 0
-137 -138 0
-137 -139 0
-137 -140 0
-138 -139 0
-138 -140 0
-139 -140 0
136 137 138 139 140 0
-141 -142 0
-141 -143 0
-141 -144 0
-141 -145 0
-142 -143 0
-142 -144 0
-142 -145 0
-143 -144 0
-143 -145 0
-144 -145 0
141 142 143 144 145 0
-146 -147 0
-146 -148 0
-146 -149 0
-146 -150 0
-147 -148 0
-147 -149 0
-147 -150 0
-148 -149 0
-148 -150 0
-149 -150 0
146 147 148 149 150 0
-151 -152 0
-151 -153 0
-151 -154 0
-151 -155 0
-152 -153 0
-152 -154 0
-152 -155 0
-153 -154 0
-153 -155 0
-154 -155 0
151 152 153 154 155 0
-156 -157 0
-156 -158 0
-156 -159 0
-156 -160 0
-157 -158 0
-157 -159 0
-157 -160 0
-158 -159 0
-158 -160 0
-159 -160 0
156 157 158 159 160 0
-161 -162 0
-161 -163 0
-161 -164 0
-161 -165 0
-162 -163 0
-162 -164 0
-162 -165 0
-163 -164 0
-163 -165 0
-164 -165 0
161 162 163 164 165 0
-166 -167 0
-166 -168 0
-166 -169 0
-166 -170 0
-167 -168 0
-167 -169 0
-167 -170 0
-168 -169 0
-168 -170 0
-169 -170 0
166 167 168 169 170 0
-171 -172 0
-171 -173 0
-171 -174 0
-171 -175 0
-172 -173 0
-172 -174 0
-172 -175 0
-173 -174 0
-173 -175 0
-174 -175 0
171 172 173 174 175 0
-176 -177 0
-176 -178 0
-176 -179 0
-176 -180 0
-177 -178 0
-177 -179 0
-177 -180 0
-178 -179 0
-178 -180 0
-179 -180 0
176 177 178 179 180 0
-181 -182 0
-181 -183 0
-181 -184 0
-181 -185 0
-182 -183 0
-182 -184 0
-182 -185 0
-183 -184 0
-183 -185 0
-184 -185 0
181 182 183 184 185 0
-186 -187 0
-186 -188 0
-186 -189 0
-186 -190 0
-187 -188 0
-187 -189 0
-187 -190 0
-188 -189 0
-188 -190 0
-189 -190 0
186 187 188 189 190 0
-191 -192 0
-191 -193 0
-191 -194 0
-191 -195 0
-192 -193 0
-192 -194 0
-192 -195 0
-193 -194 0
-193 -195 0
-194 -195 0
191 192 193 194 195 0
-196 -197 0
-196 -198 0
-196 -199 0
-196 -200 0
-197 -198 0
-197 -199 0
-197 -200 0
-198 -199 0
-198 -200 0
-199 -200 0
196 197 198 199 200 0
-201 -202 0
-201 -203 0
-201 -204 0
-201 -205 0
-202 -203 0
-202 -204 0
-202 -205 0
-203 -204 0
-203 -205 0
-204 -205 0
201 202 203 204 205 0
-206 -207 0
-206 -208 0
-206 -209 0
-206 -210 0
-207 -208 0
-207 -209 0
-207 -210 0
-208 -209 0
-208 -210 0
-209 -210 0
206 207 208 209 210 0
-211 -212 0
-211 -213 0
-211 -214 0
-211 -215 0
-212 -213 0
-212 -214 0
-212 -215 0
-213 -214 0
-213 -215 0
-214 -215 0
211 212 213 214 215 0
-216 -217 0
-216 -218 0
-216 -219 0
-216 -220 0
-217 -218 0
-217 -219 0
-217 -220 0
-218 -219 0
-218 -220 0
-219 -220 0
216 217 218 219 220 0
-221 -222 0
-221 -223 0
-221 -224 0
-221 -225 0
-222 -223 0
-222 -224 0
-222 -225 0
-223 -224 0
-223 -225 0
-224 -225 0
221 222 223 224 225 0
-226 -227 0
-226 -228 0
-226 -229 0
-226 -230 0
-227 -228 0
-227 -229 0
-227 -230 0
-228 -229 0
-228 -230 0
-229 -230 0
226 227 228 229 230 0
-231 -232 0
-231 -233 0
-231 -234 0
-231 -235 0
-232 -233 0
-232 -234 0
-232 -235 0
-233 -234 0
-233 -235 0
-234 -235 0
231 232 233 234 235 0
-236 -237 0
-236 -238 0
-236 -239 0
-236 -240 0
-237 -238 0
-237 -239 0
-237 -240 0
-238 -239 0
-238 -240 0
-239 -240 0
236 237 238 239 240 0
-241 -242 0
-241 -243 0
-241 -244 0
-241 -245 0
-242 -243 0
-242 -244 0
-242 -245 0
-243 -244 0
-243 -245 0
-244 -245 0
241 242 243 244 245 0
-246 -247 0
-246 -248 0
-246 -249 0
-246 -250 0
-247 -248 0
-247 -249 0
-247 -250 0
-248 -249 0
-248 -250 0
-249 -250 0
246 247 248 249 250 0
-251 -252 0
-251 -253 0
-251 -254 0
-251 -255 0
-252 -253 0
-252 -254 0
-252 -255 0
-253 -254 0
-253 -255 0
-254 -255 0
251 252 253 254 255 0
-256 -257 0
-256 -258 0
-256 -259 0
-256 -260 0
-257 -258 0
-257 -259 0
-257 -260 0
-258 -259 0
-258 -260 0
-259 -260 0
256 257 258 259 260 0
-261 -262 0
-261 -263 0
-261 -264 0
-261 -265 0
-262 -263 0
-262 -264 0
-262 -265 0
-263 -264 0
-263 -265 0
-264 -265 0
261 262 263 264 265 0
-266 -267 0
-266 -268 0
-266 -269 0
-266 -270 0
-267 -268 0
-267 -269 0
-267 -270 0
-268 -269 0
-268 -270 0
-269 -270 0
266 267 268 269 270 0
-271 -272 0
-271 -273 0
-271 -274 0
-271 -275 0
-272 -273 0
-272 -274 0
-272 -275 0
-273 -274 0
-273 -275 0
-274 -275 0
271 272 273 274 275 0
-276 -277 0
-276 -278 0
-276 -279 0
-276 -280 0
-277 -278 0
-277 -279 0
-277 -280 0
-278 -279 0
-278 -280 0
-279 -280 0
276 277 278 279 280 0
-281 -282 0
-281 -283 0
-281 -284 0
-281 -285 0
-282 -283 0
-282 -284 0
-282 -285 0
-283 -284 0
-283 -285 0
-284 -285 0
281 282 283 284 285 0
-286 -287 0
-286 -288 0
-286 -289 0
-286 -290 0
-287 -288 0
-287 -289 0
-287 -290 0
-288 -289 0
-288 -290 0
-289 -290 0
286 287 288 289 290 0
-291 -292 0
-291 -293 0
-291 -294 0
-291 -295 0
-292 -293 0
-292 -294 0
-292 -295 0
-293 -294 0
-293 -295 0
-294 -295 0
291 292 293 294 295 0
-296 -297 0
-296 -298 0
-296 -299 0
-296 -300 0
-297 -298 0
-297 -299 0
-297 -300 0
-298 -299 0
-298 -300 0
-299 -300 0
296 297 298 299 300 0
-301 -302 0
-301 -303 0
-301 -304 0
-301 -305 0
-302 -303 0
-302 -304 0
-302 -305 0
-303 -304 0
-303 -305 0
-304 -305 0
301 302 303 304 305 0
-306 -307 0
-306 -308 0
-306 -309 0
-306 -310 0
-307 -308 0
-307 -309 0
-307 -310 0
-308 -309 0
-308 -310 0
-309 -310 0
306 307 308 309 310 0
-311 -312 0
-311 -313 0
-311 -314 0
-311 -315 0
-312 -313 0
-312 -314 0
-312 -315 0
-313 -314 0
-313 -315 0
-314 -315 0
311 312 313 314 315 0
-316 -317 0
-316 -318 0
-316 -319 0
-316 -320 0
-317 -318 0
-317 -319 0
-317 -320 0
-318 -319 0
-318 -320 0
-319 -320 0
316 317 318 319 320 0
-321 -322 0
-321 -323 0
-321 -324 0
-321 -325 0
-322 -323 0
-322 -324 0
-322 -325 0
-323 -324 0
-323 -325 0
-324 -325 0
321 322 323 324 325 0
-326 -327 0
-326 -328 0
-326 -329 0
-326 -330 0
-327 -328 0
-327 -329 0
-327 -330 0
-328 -329 0
-328 -330 0
-329 -330 0
326 327 328 329 330 0
-331 -332 0
-331 -333 0
-331 -334 0
-331 -335 0
-332 -333 0
-332 -334 0
-332 -335 0
-333 -334 0
-333 -335 0
-334 -335 0
331 332 333 334 335 0
-336 -337 0
-336 -338 0
-336 -339 0
-336 -340 0
-337 -338 0
-337 -339 0
-337 -340 0
-338 -339 0
-338 -340 0
-339 -340 0
336 337 338 339 340 0
-341 -342 0
-341 -343 0
-341 -344 0
-341 -345 0
-342 -343 0
-342 -344 0
-342 -345 0
-343 -344 0
-343 -345 0
-344 -345 0
341 342 343 344 345 0
-346 -347 0
-346 -348 0
-346 -349 0
-346 -350 0
-347 -348 0
-347 -349 0
-347 -350 0
-348 -349 0
-348 -350 0
-349 -350 0
346 347 348 349 350 0
-351 -352 0
-351 -353 0
-351 -354 0
-351 -355 0
-352 -353 0
-352 -354 0
-352 -355 0
-353 -354 0
-353 -355 0
-354 -355 0
351 352 353 354 355 0
-356 -357 0
-356 -358 0
-356 -359 0
-356 -360 0
-357 -358 0
-357 -359 0
-357 -360 0
-358 -359 0
-358 -360 0
-359 -360 0
356 357 358 359 360 0
-361 -362 0
-361 -363 0
-361 -364 0
-361 -365 0
-362 -363 0
-362 -364 0
-362 -365 0
-363 -364 0
-363 -365 0
-364 -365 0
361 362 363 364 365 0
-366 -367 0
-366 -368 0
-366 -369 0
-366 -370 0
-367 -368 0
-367 -369 0
-367 -370 0
-368 -369 0
-368 -370 0
-369 -370 0
366 367 368 369 370 0
-371 -372 0
-371 -373 0
-371 -374 0
-371 -375 0
-372 -373 0
-372 -374 0
-372 -375 0
-373 -374 0
-373 -375 0
-374 -375 0
371 372 373 374 375 0
-376 -377 0
-376 -378 0
-376 -379 0
-376 -380 0
-377 -378 0
-377 -379 0
-377 -380 0
-378 -379 0
-378 -380 0
-379 -380 0
376 377 378 379 380 0
-381 -382 0
-381 -383 0
-381 -384 0
-381 -385 0
-382 -383 0
-382 -384 0
-382 -385 0
-383 -384 0
-383 -385 0
-384 -385 0
381 382 383 384 385 0
-386 -387 0
-386 -388 0
-386 -389 0
-386 -390 0
-387 -388 0
-387 -389 0
-387 -390 0
-388 -389 0
-388 -390 0
-389 -390 0
386 387 388 389 390 0
-391 -392 0
-391 -393 0
-391 -394 0
-391 -395 0
-392 -393 0
-392 -394 0
-392 -395 0
-393 -394 0
-393 -395 0
-394 -395 0
391 392 393 394 395 0
-396 -397 0
-396 -398 0
-396 -399 0
-396 -400 0
-397 -398 0
-397 -399 0
-397 -400 0
-398 -399 0
-398 -400 0
-399 -400 0
396 397 398 399 400 0
-401 -402 0
-401 -403 0
-401 -404 0
-401 -405 0
-402 -403 0
-402 -404 0
-402 -405 0
-403 -404 0
-403 -405 0
-404 -405 0
401 402 403 404 405 0
-406 -407 0
-406 -408 0
-406 -409 0
-406 -410 0
-407 -408 0
-407 -409 0
-407 -410 0
-408 -409 0
-408 -410 0
-409 -410 0
406 407 408 409 410 0
-411 -412 0
-411 -413 0
-411 -414 0
-411 -415 0
-412 -413 0
-412 -414 0
-412 -415 0
-413 -414 0
-413 -415 0
-414 -415 0
411 412 413 414 415 0
-416 -417 0
-416 -418 0
-416 -419 0
-416 -420 0
-417 -418 0
-417 -419 0
-417 -420 0
-418 -419 0
-418 -420 0
-419 -420 0
416 417 418 419 420 0
-421 -422 0
-421 -423 0
-421 -424 0
-421 -425 0
-422 -423 0
-422 -424 0
-422 -425 0
-423 -424 0
-423 -425 0
-424 -425 0
421 422 423 424 425 0
-426 -427 0
-426 -428 0
-426 -429 0
-426 -430 0
-427 -428 0
-427 -429 0
-427 -430 0
-428 -429 0
-428 -430 0
-429 -430 0
426 427 428 429 430 0
-431 -432 0
-431 -433 0
-431 -434 0
-431 -435 0
-432 -433 0
-432 -434 0
-432 -435 0
-433 -434 0
-433 -435 0
-434 -435 0
431 432 433 434 435 0
-436 -437 0
-436 -438 0
-436 -439 0
-436 -440 0
-437 -438 0
-437 -439 0
-437 -440 0
-438 -439 0
-438 -440 0
-439 -440 0
436 437 438 439 440 0
-441 -442 0
-441 -443 0
-441 -444 0
-441 -445 0
-442 -443 0
-442 -444 0
-442 -445 0
-443 -444 0
-443 -445 0
-444 -445 0
441 442 443 444 445 0
-446 -447 0
-446 -448 0
-446 -449 0
-446 -450 0
-447 -448 0
-447 -449 0
-447 -450 0
-448 -449 0
-448 -450 0
-449 -450 0
446 447 448 449 450 0
-451 -452 0
-451 -453 0
-451 -454 0
-451 -455 0
-452 -453 0
-452 -454 0
-452 -455 0
-453 -454 0
-453 -455 0
-454 -455 0
451 452 453 454 455 0
-456 -457 0
-456 -458 0
-456 -459 0
-456 -460 0
-457 -458 0
-457 -459 0
-457 -460 0
-458 -459 0
-458 -460 0
-459 -460 0
456 457 458 459 460 0
-461 -462 0
-461 -463 0
-461 -464 0
-461 -465 0
-462 -463 0
-462 -464 0
-462 -465 0
-463 -464 0
-463 -465 0
-464 -465 0
461 462 463 464 465 0
-466 -467 0
-466 -468 0
-466 -469 0
-466 -470 0
-467 -468 0
-467 -469 0
-467 -470 0
-468 -469 0
-468 -470 0
-469 -470 0
466 467 468 469 470 0
-471 -472 0
-471 -473 0
-471 -474 0
-471 -475 0
-472 -473 0
-472 -474 0
-472 -475 0
-473 -474 0
-473 -475 0
-474 -475 0
471 472 473 474 475 0
-476 -477 0
-476 -478 0
-476 -479 0
-476 -480 0
-477 -478 0
-477 -479 0
-477 -480 0
-478 -479 0
-478 -480 0
-479 -480 0
476 477 478 479 480 0
-481 -482 0
-481 -483 0
-481 -484 0
-481 -485 0
-482 -483 0
-482 -484 0
-482 -485 0
-483 -484 0
-483 -485 0
-484 -485 0
481 482 483 484 485 0
-486 -487 0
-486 -488 0
-486 -489 0
-486 -490 0
-487 -488 0
-487 -489 0
-487 -490 0
-488 -489 0
-488 -490 0
-489 -490 0
486 487 488 489 490 0
-491 -492 0
-491 -493 0
-491 -494 0
-491 -495 0
-492 -493 0
-492 -494 0
-492 -495 0
-493 -494 0
-493 -495 0
-494 -495 0
491 492 493 494 495 0
-496 -497 0
-496 -498 0
-496 -499 0
-496 -500 0
-497 -498 0
-497 -499 0
-497 -500 0
-498 -499 0
-498 -500 0
-499 -500 0
496 497 498 499 500 0
-1 -6 0
-2 -7 0
-3 -8 0
-4 -9 0
-5 -10 0
-11 -21 0
-12 -22 0
-13 -23 0
-14 -24 0
-15 -25 0
-16 -21 0
-17 -22 0
-18 -23 0
-19 -24 0
-20 -25 0
-36 -46 0
-37 -47 0
-38 -48 0
-39 -49 0
-40 -50 0
-76 -86 0
-77 -87 0
-78 -88 0
-79 -89 0
-80 -90 0
-76 -96 0
-77 -97 0
-78 -98 0
-79 -99 0
-80 -100 0
-91 -111 0
-92 -112 0
-93 -113 0
-94 -114 0
-95 -115 0
-101 -111 0
-102 -112 0
-103 -113 0
-104 -114 0
-105 -115 0
-106 -126 0
-107 -127 0
-108 -128 0
-109 -129 0
-110 -130 0
-116 -121 0
-117 -122 0
-118 -123 0
-119 -124 0
-120 -125 0
-121 -126 0
-122 -127 0
-123 -128 0
-124 -129 0
-125 -130 0
-136 -146 0
-137 -147 0
-138 -148 0
-139 -149 0
-140 -150 0
-136 -151 0
-137 -152 0
-138 -153 0
-139 -154 0
-140 -155 0
-141 -161 0
-142 -162 0
-143 -163 0
-144 -164 0
-145 -165 0
-166 -181 0
-167 -182 0
-168 -183 0
-169 -184 0
-170 -185 0
-176 -181 0
-177 -182 0
-178 -183 0
-179 -184 0
-180 -185 0
-181 -196 0
-182 -197 0
-183 -198 0
-184 -199 0
-185 -200 0
-181 -201 0
-182 -202 0
-183 -203 0
-184 -204 0
-185 -205 0
-201 -211 0
-202 -212 0
-203 -213 0
-204 -214 0
-205 -215 0
-231 -251 0
-232 -252 0
-233 -253 0
-234 -254 0
-235 -255 0
-236 -251 0
-237 -252 0
-238 -253 0
-239 -254 0
-240 -255 0
-271 -291 0
-272 -292 0
-273 -293 0
-274 -294 0
-275 -295 0
-281 -291 0
-282 -292 0
-283 -293 0
-284 -294 0
-285 -295 0
-281 -296 0
-282 -297 0
-283 -298 0
-284 -299 0
-285 -300 0
-291 -311 0
-292 -312 0
-293 -313 0
-294 -314 0
-295 -315 0
-311 -321 0
-312 -322 0
-313 -323 0
-314 -324 0
-315 -325 0
-371 -376 0
-372 -377 0
-373 -378 0
-374 -379 0
-375 -380 0
-371 -381 0
-372 -382 0
-373 -383 0
-374 -384 0
-375 -385 0
-381 -386 0
-382 -387 0
-383 -388 0
-384 -389 0
-385 -390 0
-391 -401 0
-392 -402 0
-393 -403 0
-394 -404 0
-395 -405 0
-401 -421 0
-402 -422 0
-403 -423 0
-404 -424 0
-405 -425 0
-411 -421 0
-412 -422 0
-413 -423 0
-414 -424 0
-415 -425 0
-431 -436 0
-432 -437 0
-433 -438 0
-434 -439 0
-435 -440 0
-466 -476 0
-467 -477 0
-468 -478 0
-469 -479 0
-470 -480 0
-471 -476 0
-472 -477 0
-473 -478 0
-474 -479 0
-475 -480 0
-476 -481 0
-477 -482 0
-478 -483 0
-479 -484 0
-480 -485 0
-1 -486 0
-2 -487 0
-3 -488 0
-4 -489 0
-5 -490 0
-6 -496 0
-7 -497 0
-8 -498 0
-9 -499 0
-10 -500 0
-1 -81 0
-2 -82 0
-3 -83 0
-4 -84 0
-5 -85 0
-1 -116 0
-2 -117 0
-3 -118 0
-4 -119 0
-5 -120 0
-1 -201 0
-2 -202 0
-3 -203 0
-4 -204 0
-5 -205 0
-1 -236 0
-2 -237 0
-3 -238 0
-4 -239 0
-5 -240 0
-1 -271 0
-2 -272 0
-3 -273 0
-4 -274 0
-5 -275 0
-1 -446 0
-2 -447 0
-3 -448 0
-4 -449 0
-5 -450 0
-6 -216 0
-7 -217 0
-8 -218 0
-9 -219 0
-10 -220 0
-6 -306 0
-7 -307 0
-8 -308 0
-9 -309 0
-10 -310 0
-6 -351 0
-7 -352 0
-8 -353 0
-9 -354 0
-10 -355 0
-6 -401 0
-7 -402 0
-8 -403 0
-9 -404 0
-10 -405 0
-6 -446 0
-7 -447 0
-8 -448 0
-9 -449 0
-10 -450 0
-6 -476 0
-7 -477 0
-8 -478 0
-9 -479 0
-10 -480 0
-11 -61 0
-12 -62 0
-13 -63 0
-14 -64 0
-15 -65 0
-11 -76 0
-12 -77 0
-13 -78 0
-14 -79 0
-15 -80 0
-11 -166 0
-12 -167 0
-13 -168 0
-14 -169 0
-15 -170 0
-11 -246 0
-12 -247 0
-13 -248 0
-14 -249 0
-15 -250 0
-11 -271 0
-12 -272 0
-13 -273 0
-14 -274 0
-15 -275 0
-11 -291 0
-12 -292 0
-13 -293 0
-14 -294 0
-15 -295 0
-11 -316 0
-12 -317 0
-13 -318 0
-14 -319 0
-15 -320 0
-11 -321 0
-12 -322 0
-13 -323 0
-14 -324 0
-15 -325 0
-11 -366 0
-12 -367 0
-13 -368 0
-14 -369 0
-15 -370 0
-11 -421 0
-12 -422 0
-13 -423 0
-14 -424 0
-15 -425 0
-16 -46 0
-17 -47 0
-18 -48 0
-19 -49 0
-20 -50 0
-16 -51 0
-17 -52 0
-18 -53 0
-19 -54 0
-20 -55 0
-16 -71 0
-17 -72 0
-18 -73 0
-19 -74 0
-20 -75 0
-16 -106 0
-17 -107 0
-18 -108 0
-19 -109 0
-20 -110 0
-16 -126 0
-17 -127 0
-18 -128 0
-19 -129 0
-20 -130 0
-16 -141 0
-17 -142 0
-18 -143 0
-19 -144 0
-20 -145 0
-16 -201 0
-17 -202 0
-18 -203 0
-19 -204 0
-20 -205 0
-16 -311 0
-17 -312 0
-18 -313 0
-19 -314 0
-20 -315 0
-16 -336 0
-17 -337 0
-18 -338 0
-19 -339 0
-20 -340 0
-16 -376 0
-17 -377 0
-18 -378 0
-19 -379 0
-20 -380 0
-16 -411 0
-17 -412 0
-18 -413 0
-19 -414 0
-20 -415 0
-16 -491 0
-17 -492 0
-18 -493 0
-19 -494 0
-20 -495 0
-21 -241 0
-22 -242 0
-23 -243 0
-24 -244 0
-25 -245 0
-21 -286 0
-22 -287 0
-23 -288 0
-24 -289 0
-25 -290 0
-21 -296 0
-22 -297 0
-23 -298 0
-24 -299 0
-25 -300 0
-21 -346 0
-22 -347 0
-23 -348 0
-24 -349 0
-25 -350 0
-21 -391 0
-22 -392 0
-23 -393 0
-24 -394 0
-25 -395 0
-21 -431 0
-22 -432 0
-23 -433 0
-24 -434 0
-25 -435 0
-26 -151 0
-27 -152 0
-28 -153 0
-29 -154 0
-30 -155 0
-26 -186 0
-27 -187 0
-28 -188 0
-29 -189 0
-30 -190 0
-26 -241 0
-27 -242 0
-28 -243 0
-29 -244 0
-30 -245 0
-26 -261 0
-27 -262 0
-28 -263 0
-29 -264 0
-30 -265 0
-26 -321 0
-27 -322 0
-28 -323 0
-29 -324 0
-30 -325 0
-26 -411 0
-27 -412 0
-28 -413 0
-29 -414 0
-30 -415 0
-26 -491 0
-27 -492 0
-28 -493 0
-29 -494 0
-30 -495 0
-31 -56 0
-32 -57 0
-33 -58 0
-34 -59 0
-35 -60 0
-31 -176 0
-32 -177 0
-33 -178 0
-34 -179 0
-35 -180 0
-31 -436 0
-32 -437 0
-33 -438 0
-34 -439 0
-35 -440 0
-36 -91 0
-37 -92 0
-38 -93 0
-39 -94 0
-40 -95 0
-36 -271 0
-37 -272 0
-38 -273 0
-39 -274 0
-40 -275 0
-36 -436 0
-37 -437 0
-38 -438 0
-39 -439 0
-40 -440 0
-36 -456 0
-37 -457 0
-38 -458 0
-39 -459 0
-40 -460 0
-41 -81 0
-42 -82 0
-43 -83 0
-44 -84 0
-45 -85 0
-41 -96 0
-42 -97 0
-43 -98 0
-44 -99 0
-45 -100 0
-41 -161 0
-42 -162 0
-43 -163 0
-44 -164 0
-45 -165 0
-41 -246 0
-42 -247 0
-43 -248 0
-44 -249 0
-45 -250 0
-41 -291 0
-42 -292 0
-43 -293 0
-44 -294 0
-45 -295 0
-41 -326 0
-42 -327 0
-43 -328 0
-44 -329 0
-45 -330 0
-41 -396 0
-42 -397 0
-43 -398 0
-44 -399 0
-45 -400 0
-41 -471 0
-42 -472 0
-43 -473 0
-44 -474 0
-45 -475 0
-41 -476 0
-42 -477 0
-43 -478 0
-44 -479 0
-45 -480 0
-46 -86 0
-47 -87 0
-48 -88 0
-49 -89 0
-50 -90 0
-46 -181 0
-47 -182 0
-48 -183 0
-49 -184 0
-50 -185 0
-46 -221 0
-47 -222 0
-48 -223 0
-49 -224 0
-50 -225 0
-46 -256 0
-47 -257 0
-48 -258 0
-49 -259 0
-50 -260 0
-46 -306 0
-47 -307 0
-48 -308 0
-49 -309 0
-50 -310 0
-46 -356 0
-47 -357 0
-48 -358 0
-49 -359 0
-50 -360 0
-46 -396 0
-47 -397 0
-48 -398 0
-49 -399 0
-50 -400 0
-51 -141 0
-52 -142 0
-53 -143 0
-54 -144 0
-55 -145 0
-51 -161 0
-52 -162 0
-53 -163 0
-54 -164 0
-55 -165 0
-51 -196 0
-52 -197 0
-53 -198 0
-54 -199 0
-55 -200 0
-51 -376 0
-52 -377 0
-53 -378 0
-54 -379 0
-55 -380 0
-51 -386 0
-52 -387 0
-53 -388 0
-54 -389 0
-55 -390 0
-51 -466 0
-52 -467 0
-53 -468 0
-54 -469 0
-55 -470 0
-56 -81 0
-57 -82 0
-58 -83 0
-59 -84 0
-60 -85 0
-56 -236 0
-57 -237 0
-58 -238 0
-59 -239 0
-60 -240 0
-56 -431 0
-57 -432 0
-58 -433 0
-59 -434 0
-60 -435 0
-56 -451 0
-57 -452 0
-58 -453 0
-59 -454 0
-60 -455 0
-56 -486 0
-57 -487 0
-58 -488 0
-59 -489 0
-60 -490 0
-61 -136 0
-62 -137 0
-63 -138 0
-64 -139 0
-65 -140 0
-61 -201 0
-62 -202 0
-63 -203 0
-64 -204 0
-65 -205 0
-61 -286 0
-62 -287 0
-63 -288 0
-64 -289 0
-65 -290 0
-61 -371 0
-62 -372 0
-63 -373 0
-64 -374 0
-65 -375 0
-61 -401 0
-62 -402 0
-63 -403 0
-64 -404 0
-65 -405 0
-66 -261 0
-67 -262 0
-68 -263 0
-69 -264 0
-70 -265 0
-66 -306 0
-67 -307 0
-68 -308 0
-69 -309 0
-70 -310 0
-66 -436 0
-67 -437 0
-68 -438 0
-69 -439 0
-70 -440 0
-71 -131 0
-72 -132 0
-73 -133 0
-74 -134 0
-75 -135 0
-71 -326 0
-72 -327 0
-73 -328 0
-74 -329 0
-75 -330 0
-71 -346 0
-72 -347 0
-73 -348 0
-74 -349 0
-75 -350 0
-71 -391 0
-72 -392 0
-73 -393 0
-74 -394 0
-75 -395 0
-76 -106 0
-77 -107 0
-78 -108 0
-79 -109 0
-80 -110 0
-76 -111 0
-77 -112 0
-78 -113 0
-79 -114 0
-80 -115 0
-76 -196 0
-77 -197 0
-78 -198 0
-79 -199 0
-80 -200 0
-76 -296 0
-77 -297 0
-78 -298 0
-79 -299 0
-80 -300 0
-76 -306 0
-77 -307 0
-78 -308 0
-79 -309 0
-80 -310 0
-76 -411 0
-77 -412 0
-78 -413 0
-79 -414 0
-80 -415 0
-76 -481 0
-77 -482 0
-78 -483 0
-79 -484 0
-80 -485 0
-81 -136 0
-82 -137 0
-83 -138 0
-84 -139 0
-85 -140 0
-81 -176 0
-82 -177 0
-83 -178 0
-84 -179 0
-85 -180 0
-81 -196 0
-82 -197 0
-83 -198 0
-84 -199 0
-85 -200 0
-81 -216 0
-82 -217 0
-83 -218 0
-84 -219 0
-85 -220 0
-81 -271 0
-82 -272 0
-83 -273 0
-84 -274 0
-85 -275 0
-81 -301 0
-82 -302 0
-83 -303 0
-84 -304 0
-85 -305 0
-81 -341 0
-82 -342 0
-83 -343 0
-84 -344 0
-85 -345 0
-81 -396 0
-82 -397 0
-83 -398 0
-84 -399 0
-85 -400 0
-86 -221 0
-87 -222 0
-88 -223 0
-89 -224 0
-90 -225 0
-86 -286 0
-87 -287 0
-88 -288 0
-89 -289 0
-90 -290 0
-86 -456 0
-87 -457 0
-88 -458 0
-89 -459 0
-90 -460 0
-91 -126 0
-92 -127 0
-93 -128 0
-94 -129 0
-95 -130 0
-91 -176 0
-92 -177 0
-93 -178 0
-94 -179 0
-95 -180 0
-91 -236 0
-92 -237 0
-93 -238 0
-94 -239 0
-95 -240 0
-91 -316 0
-92 -317 0
-93 -318 0
-94 -319 0
-95 -320 0
-91 -346 0
-92 -347 0
-93 -348 0
-94 -349 0
-95 -350 0
-91 -361 0
-92 -362 0
-93 -363 0
-94 -364 0
-95 -365 0
-91 -471 0
-92 -472 0
-93 -473 0
-94 -474 0
-95 -475 0
-96 -286 0
-97 -287 0
-98 -288 0
-99 -289 0
-100 -290 0
-96 -301 0
-97 -302 0
-98 -303 0
-99 -304 0
-100 -305 0
-96 -316 0
-97 -317 0
-98 -318 0
-99 -319 0
-100 -320 0
-96 -461 0
-97 -462 0
-98 -463 0
-99 -464 0
-100 -465 0
-96 -466 0
-97 -467 0
-98 -468 0
-99 -469 0
-100 -470 0
-101 -131 0
-102 -132 0
-103 -133 0
-104 -134 0
-105 -135 0
-101 -291 0
-102 -292 0
-103 -293 0
-104 -294 0
-105 -295 0
-101 -331 0
-102 -332 0
-103 -333 0
-104 -334 0
-105 -335 0
-101 -411 0
-102 -412 0
-103 -413 0
-104 -414 0
-105 -415 0
-101 -461 0
-102 -462 0
-103 -463 0
-104 -464 0
-105 -465 0
-101 -486 0
-102 -487 0
-103 -488 0
-104 -489 0
-105 -490 0
-106 -136 0
-107 -137 0
-108 -138 0
-109 -139 0
-110 -140 0
-106 -356 0
-107 -357 0
-108 -358 0
-109 -359 0
-110 -360 0
-106 -431 0
-107 -432 0
-108 -433 0
-109 -434 0
-110 -435 0
-106 -446 0
-107 -447 0
-108 -448 0
-109 -449 0
-110 -450 0
-111 -151 0
-112 -152 0
-113 -153 0
-114 -154 0
-115 -155 0
-111 -186 0
-112 -187 0
-113 -188 0
-114 -189 0
-115 -190 0
-111 -191 0
-112 -192 0
-113 -193 0
-114 -194 0
-115 -195 0
-111 -201 0
-112 -202 0
-113 -203 0
-114 -204 0
-115 -205 0
-111 -251 0
-112 -252 0
-113 -253 0
-114 -254 0
-115 -255 0
-111 -356 0
-112 -357 0
-113 -358 0
-114 -359 0
-115 -360 0
-111 -376 0
-112 -377 0
-113 -378 0
-114 -379 0
-115 -380 0
-111 -416 0
-112 -417 0
-113 -418 0
-114 -419 0
-115 -420 0
-111 -426 0
-112 -427 0
-113 -428 0
-114 -429 0
-115 -430 0
-111 -431 0
-112 -432 0
-113 -433 0
-114 -434 0
-115 -435 0
-111 -436 0
-112 -437 0
-113 -438 0
-114 -439 0
-115 -440 0
-116 -231 0
-117 -232 0
-118 -233 0
-119 -234 0
-120 -235 0
-116 -256 0
-117 -257 0
-118 -258 0
-119 -259 0
-120 -260 0
-116 -361 0
-117 -362 0
-118 -363 0
-119 -364 0
-120 -365 0
-116 -366 0
-117 -367 0
-118 -368 0
-119 -369 0
-120 -370 0
-116 -381 0
-117 -382 0
-118 -383 0
-119 -384 0
-120 -385 0
-116 -391 0
-117 -392 0
-118 -393 0
-119 -394 0
-120 -395 0
-116 -396 0
-117 -397 0
-118 -398 0
-119 -399 0
-120 -400 0
-116 -491 0
-117 -492 0
-118 -493 0
-119 -494 0
-120 -495 0
-116 -496 0
-117 -497 0
-118 -498 0
-119 -499 0
-120 -500 0
-121 -181 0
-122 -182 0
-123 -183 0
-124 -184 0
-125 -185 0
-121 -216 0
-122 -217 0
-123 -218 0
-124 -219 0
-125 -220 0
-121 -231 0
-122 -232 0
-123 -233 0
-124 -234 0
-125 -235 0
-121 -276 0
-122 -277 0
-123 -278 0
-124 -279 0
-125 -280 0
-121 -296 0
-122 -297 0
-123 -298 0
-124 -299 0
-125 -300 0
-121 -316 0
-122 -317 0
-123 -318 0
-124 -319 0
-125 -320 0
-121 -356 0
-122 -357 0
-123 -358 0
-124 -359 0
-125 -360 0
-121 -426 0
-122 -427 0
-123 -428 0
-124 -429 0
-125 -430 0
-121 -476 0
-122 -477 0
-123 -478 0
-124 -479 0
-125 -480 0
-121 -491 0
-122 -492 0
-123 -493 0
-124 -494 0
-125 -495 0
-126 -151 0
-127 -152 0
-128 -153 0
-129 -154 0
-130 -155 0
-126 -231 0
-127 -232 0
-128 -233 0
-129 -234 0
-130 -235 0
-126 -266 0
-127 -267 0
-128 -268 0
-129 -269 0
-130 -270 0
-126 -301 0
-127 -302 0
-128 -303 0
-129 -304 0
-130 -305 0
-126 -401 0
-127 -402 0
-128 -403 0
-129 -404 0
-130 -405 0
-126 -411 0
-127 -412 0
-128 -413 0
-129 -414 0
-130 -415 0
-131 -386 0
-132 -387 0
-133 -388 0
-134 -389 0
-135 -390 0
-131 -496 0
-132 -497 0
-133 -498 0
-134 -499 0
-135 -500 0
-136 -276 0
-137 -277 0
-138 -278 0
-139 -279 0
-140 -280 0
-136 -296 0
-137 -297 0
-138 -298 0
-139 -299 0
-140 -300 0
-136 -301 0
-137 -302 0
-138 -303 0
-139 -304 0
-140 -305 0
-136 -331 0
-137 -332 0
-138 -333 0
-139 -334 0
-140 -335 0
-136 -411 0
-137 -412 0
-138 -413 0
-139 -414 0
-140 -415 0
-136 -436 0
-137 -437 0
-138 -438 0
-139 -439 0
-140 -440 0
-136 -461 0
-137 -462 0
-138 -463 0
-139 -464 0
-140 -465 0
-141 -316 0
-142 -317 0
-143 -318 0
-144 -319 0
-145 -320 0
-141 -351 0
-142 -352 0
-143 -353 0
-144 -354 0
-145 -355 0
-141 -406 0
-142 -407 0
-143 -408 0
-144 -409 0
-145 -410 0
-146 -286 0
-147 -287 0
-148 -288 0
-149 -289 0
-150 -290 0
-146 -326 0
-147 -327 0
-148 -328 0
-149 -329 0
-150 -330 0
-146 -346 0
-147 -347 0
-148 -348 0
-149 -349 0
-150 -350 0
-146 -356 0
-147 -357 0
-148 -358 0
-149 -359 0
-150 -360 0
-151 -246 0
-152 -247 0
-153 -248 0
-154 -249 0
-155 -250 0
-151 -271 0
-152 -272 0
-153 -273 0
-154 -274 0
-155 -275 0
-151 -316 0
-152 -317 0
-153 -318 0
-154 -319 0
-155 -320 0
-151 -346 0
-152 -347 0
-153 -348 0
-154 -349 0
-155 -350 0
-151 -351 0
-152 -352 0
-153 -353 0
-154 -354 0
-155 -355 0
-151 -451 0
-152 -452 0
-153 -453 0
-154 -454 0
-155 -455 0
-151 -456 0
-152 -457 0
-153 -458 0
-154 -459 0
-155 -460 0
-151 -486 0
-152 -487 0
-153 -488 0
-154 -489 0
-155 -490 0
-156 -201 0
-157 -202 0
-158 -203 0
-159 -204 0
-160 -205 0
-156 -206 0
-157 -207 0
-158 -208 0
-159 -209 0
-160 -210 0
-156 -231 0
-157 -232 0
-158 -233 0
-159 -234 0
-160 -235 0
-156 -271 0
-157 -272 0
-158 -273 0
-159 -274 0
-160 -275 0
-156 -326 0
-157 -327 0
-158 -328 0
-159 -329 0
-160 -330 0
-156 -351 0
-157 -352 0
-158 -353 0
-159 -354 0
-160 -355 0
-156 -356 0
-157 -357 0
-158 -358 0
-159 -359 0
-160 -360 0
-161 -321 0
-162 -322 0
-163 -323 0
-164 -324 0
-165 -325 0
-161 -326 0
-162 -327 0
-163 -328 0
-164 -329 0
-165 -330 0
-166 -236 0
-167 -237 0
-168 -238 0
-169 -239 0
-170 -240 0
-166 -326 0
-167 -327 0
-168 -328 0
-169 -329 0
-170 -330 0
-166 -406 0
-167 -407 0
-168 -408 0
-169 -409 0
-170 -410 0
-166 -426 0
-167 -427 0
-168 -428 0
-169 -429 0
-170 -430 0
-171 -376 0
-172 -377 0
-173 -378 0
-174 -379 0
-175 -380 0
-171 -396 0
-172 -397 0
-173 -398 0
-174 -399 0
-175 -400 0
-171 -491 0
-172 -492 0
-173 -493 0
-174 -494 0
-175 -495 0
-176 -231 0
-177 -232 0
-178 -233 0
-179 -234 0
-180 -235 0
-176 -326 0
-177 -327 0
-178 -328 0
-179 -329 0
-180 -330 0
-176 -341 0
-177 -342 0
-178 -343 0
-179 -344 0
-180 -345 0
-176 -386 0
-177 -387 0
-178 -388 0
-179 -389 0
-180 -390 0
-176 -451 0
-177 -452 0
-178 -453 0
-179 -454 0
-180 -455 0
-176 -471 0
-177 -472 0
-178 -473 0
-179 -474 0
-180 -475 0
-176 -476 0
-177 -477 0
-178 -478 0
-179 -479 0
-180 -480 0
-181 -246 0
-182 -247 0
-183 -248 0
-184 -249 0
-185 -250 0
-181 -461 0
-182 -462 0
-183 -463 0
-184 -464 0
-185 -465 0
-181 -476 0
-182 -477 0
-183 -478 0
-184 -479 0
-185 -480 0
-186 -351 0
-187 -352 0
-188 -353 0
-189 -354 0
-190 -355 0
-186 -386 0
-187 -387 0
-188 -388 0
-189 -389 0
-190 -390 0
-186 -401 0
-187 -402 0
-188 -403 0
-189 -404 0
-190 -405 0
-186 -446 0
-187 -447 0
-188 -448 0
-189 -449 0
-190 -450 0
-186 -471 0
-187 -472 0
-188 -473 0
-189 -474 0
-190 -475 0
-191 -276 0
-192 -277 0
-193 -278 0
-194 -279 0
-195 -280 0
-191 -311 0
-192 -312 0
-193 -313 0
-194 -314 0
-195 -315 0
-191 -356 0
-192 -357 0
-193 -358 0
-194 -359 0
-195 -360 0
-191 -391 0
-192 -392 0
-193 -393 0
-194 -394 0
-195 -395 0
-191 -436 0
-192 -437 0
-193 -438 0
-194 -439 0
-195 -440 0
-191 -471 0
-192 -472 0
-193 -473 0
-194 -474 0
-195 -475 0
-196 -286 0
-197 -287 0
-198 -288 0
-199 -289 0
-200 -290 0
-196 -306 0
-197 -307 0
-198 -308 0
-199 -309 0
-200 -310 0
-196 -416 0
-197 -417 0
-198 -418 0
-199 -419 0
-200 -420 0
-201 -241 0
-202 -242 0
-203 -243 0
-204 -244 0
-205 -245 0
-201 -291 0
-202 -292 0
-203 -293 0
-204 -294 0
-205 -295 0
-201 -301 0
-202 -302 0
-203 -303 0
-204 -304 0
-205 -305 0
-201 -311 0
-202 -312 0
-203 -313 0
-204 -314 0
-205 -315 0
-201 -391 0
-202 -392 0
-203 -393 0
-204 -394 0
-205 -395 0
-201 -431 0
-202 -432 0
-203 -433 0
-204 -434 0
-205 -435 0
-201 -451 0
-202 -452 0
-203 -453 0
-204 -454 0
-205 -455 0
-206 -301 0
-207 -302 0
-208 -303 0
-209 -304 0
-210 -305 0
-206 -306 0
-207 -307 0
-208 -308 0
-209 -309 0
-210 -310 0
-206 -331 0
-207 -332 0
-208 -333 0
-209 -334 0
-210 -335 0
-206 -361 0
-207 -362 0
-208 -363 0
-209 -364 0
-210 -365 0
-206 -406 0
-207 -407 0
-208 -408 0
-209 -409 0
-210 -410 0
-206 -436 0
-207 -437 0
-208 -438 0
-209 -439 0
-210 -440 0
-206 -456 0
-207 -457 0
-208 -458 0
-209 -459 0
-210 -460 0
-206 -466 0
-207 -467 0
-208 -468 0
-209 -469 0
-210 -470 0
-211 -371 0
-212 -372 0
-213 -373 0
-214 -374 0
-215 -375 0
-211 -396 0
-212 -397 0
-213 -398 0
-214 -399 0
-215 -400 0
-216 -296 0
-217 -297 0
-218 -298 0
-219 -299 0
-220 -300 0
-216 -391 0
-217 -392 0
-218 -393 0
-219 -394 0
-220 -395 0
-216 -416 0
-217 -417 0
-218 -418 0
-219 -419 0
-220 -420 0
-216 -441 0
-217 -442 0
-218 -443 0
-219 -444 0
-220 -445 0
-216 -446 0
-217 -447 0
-218 -448 0
-219 -449 0
-220 -450 0
-216 -471 0
-217 -472 0
-218 -473 0
-219 -474 0
-220 -475 0
-216 -486 0
-217 -487 0
-218 -488 0
-219 -489 0
-220 -490 0
-221 -266 0
-222 -267 0
-223 -268 0
-224 -269 0
-225 -270 0
-221 -336 0
-222 -337 0
-223 -338 0
-224 -339 0
-225 -340 0
-226 -281 0
-227 -282 0
-228 -283 0
-229 -284 0
-230 -285 0
-226 -466 0
-227 -467 0
-228 -468 0
-229 -469 0
-230 -470 0
-231 -311 0
-232 -312 0
-233 -313 0
-234 -314 0
-235 -315 0
-231 -336 0
-232 -337 0
-233 -338 0
-234 -339 0
-235 -340 0
-231 -366 0
-232 -367 0
-233 -368 0
-234 -369 0
-235 -370 0
-231 -386 0
-232 -387 0
-233 -388 0
-234 -389 0
-235 -390 0
-231 -426 0
-232 -427 0
-233 -428 0
-234 -429 0
-235 -430 0
-231 -471 0
-232 -472 0
-233 -473 0
-234 -474 0
-235 -475 0
-231 -476 0
-232 -477 0
-233 -478 0
-234 -479 0
-235 -480 0
-236 -401 0
-237 -402 0
-238 -403 0
-239 -404 0
-240 -405 0
-236 -411 0
-237 -412 0
-238 -413 0
-239 -414 0
-240 -415 0
-236 -421 0
-237 -422 0
-238 -423 0
-239 -424 0
-240 -425 0
-241 -266 0
-242 -267 0
-243 -268 0
-244 -269 0
-245 -270 0
-241 -291 0
-242 -292 0
-243 -293 0
-244 -294 0
-245 -295 0
-241 -306 0
-242 -307 0
-243 -308 0
-244 -309 0
-245 -310 0
-241 -381 0
-242 -382 0
-243 -383 0
-244 -384 0
-245 -385 0
-241 -451 0
-242 -452 0
-243 -453 0
-244 -454 0
-245 -455 0
-246 -281 0
-247 -282 0
-248 -283 0
-249 -284 0
-250 -285 0
-246 -286 0
-247 -287 0
-248 -288 0
-249 -289 0
-250 -290 0
-246 -296 0
-247 -297 0
-248 -298 0
-249 -299 0
-250 -300 0
-246 -316 0
-247 -317 0
-248 -318 0
-249 -319 0
-250 -320 0
-246 -356 0
-247 -357 0
-248 -358 0
-249 -359 0
-250 -360 0
-246 -386 0
-247 -387 0
-248 -388 0
-249 -389 0
-250 -390 0
-246 -396 0
-247 -397 0
-248 -398 0
-249 -399 0
-250 -400 0
-246 -436 0
-247 -437 0
-248 -438 0
-249 -439 0
-250 -440 0
-246 -491 0
-247 -492 0
-248 -493 0
-249 -494 0
-250 -495 0
-251 -311 0
-252 -312 0
-253 -313 0
-254 -314 0
-255 -315 0
-251 -321 0
-252 -322 0
-253 -323 0
-254 -324 0
-255 -325 0
-251 -366 0
-252 -367 0
-253 -368 0
-254 -369 0
-255 -370 0
-256 -306 0
-257 -307 0
-258 -308 0
-259 -309 0
-260 -310 0
-256 -361 0
-257 -362 0
-258 -363 0
-259 -364 0
-260 -365 0
-256 -386 0
-257 -387 0
-258 -388 0
-259 -389 0
-260 -390 0
-256 -406 0
-257 -407 0
-258 -408 0
-259 -409 0
-260 -410 0
-256 -421 0
-257 -422 0
-258 -423 0
-259 -424 0
-260 -425 0
-256 -426 0
-257 -427 0
-258 -428 0
-259 -429 0
-260 -430 0
-256 -436 0
-257 -437 0
-258 -438 0
-259 -439 0
-260 -440 0
-256 -461 0
-257 -462 0
-258 -463 0
-259 -464 0
-260 -465 0
-256 -476 0
-257 -477 0
-258 -478 0
-259 -479 0
-260 -480 0
-261 -306 0
-262 -307 0
-263 -308 0
-264 -309 0
-265 -310 0
-261 -451 0
-262 -452 0
-263 -453 0
-264 -454 0
-265 -455 0
-261 -481 0
-262 -482 0
-263 -483 0
-264 -484 0
-265 -485 0
-266 -371 0
-267 -372 0
-268 -373 0
-269 -374 0
-270 -375 0
-266 -376 0
-267 -377 0
-268 -378 0
-269 -379 0
-270 -380 0
-266 -401 0
-267 -402 0
-268 -403 0
-269 -404 0
-270 -405 0
-266 -406 0
-267 -407 0
-268 -408 0
-269 -409 0
-270 -410 0
-266 -496 0
-267 -497 0
-268 -498 0
-269 -499 0
-270 -500 0
-271 -441 0
-272 -442 0
-273 -443 0
-274 -444 0
-275 -445 0
-271 -481 0
-272 -482 0
-273 -483 0
-274 -484 0
-275 -485 0
-276 -336 0
-277 -337 0
-278 -338 0
-279 -339 0
-280 -340 0
-276 -411 0
-277 -412 0
-278 -413 0
-279 -414 0
-280 -415 0
-276 -426 0
-277 -427 0
-278 -428 0
-279 -429 0
-280 -430 0
-281 -386 0
-282 -387 0
-283 -388 0
-284 -389 0
-285 -390 0
-281 -456 0
-282 -457 0
-283 -458 0
-284 -459 0
-285 -460 0
-281 -466 0
-282 -467 0
-283 -468 0
-284 -469 0
-285 -470 0
-281 -476 0
-282 -477 0
-283 -478 0
-284 -479 0
-285 -480 0
-286 -376 0
-287 -377 0
-288 -378 0
-289 -379 0
-290 -380 0
-286 -386 0
-287 -387 0
-288 -388 0
-289 -389 0
-290 -390 0
-286 -431 0
-287 -432 0
-288 -433 0
-289 -434 0
-290 -435 0
-291 -326 0
-292 -327 0
-293 -328 0
-294 -329 0
-295 -330 0
-291 -346 0
-292 -347 0
-293 -348 0
-294 -349 0
-295 -350 0
-291 -386 0
-292 -387 0
-293 -388 0
-294 -389 0
-295 -390 0
-291 -391 0
-292 -392 0
-293 -393 0
-294 -394 0
-295 -395 0
-291 -421 0
-292 -422 0
-293 -423 0
-294 -424 0
-295 -425 0
-296 -356 0
-297 -357 0
-298 -358 0
-299 -359 0
-300 -360 0
-296 -431 0
-297 -432 0
-298 -433 0
-299 -434 0
-300 -435 0
-296 -471 0
-297 -472 0
-298 -473 0
-299 -474 0
-300 -475 0
-296 -481 0
-297 -482 0
-298 -483 0
-299 -484 0
-300 -485 0
-301 -326 0
-302 -327 0
-303 -328 0
-304 -329 0
-305 -330 0
-301 -391 0
-302 -392 0
-303 -393 0
-304 -394 0
-305 -395 0
-316 -351 0
-317 -352 0
-318 -353 0
-319 -354 0
-320 -355 0
-316 -356 0
-317 -357 0
-318 -358 0
-319 -359 0
-320 -360 0
-316 -381 0
-317 -382 0
-318 -383 0
-319 -384 0
-320 -385 0
-316 -471 0
-317 -472 0
-318 -473 0
-319 -474 0
-320 -475 0
-321 -366 0
-322 -367 0
-323 -368 0
-324 -369 0
-325 -370 0
-321 -436 0
-322 -437 0
-323 -438 0
-324 -439 0
-325 -440 0
-326 -416 0
-327 -417 0
-328 -418 0
-329 -419 0
-330 -420 0
-326 -461 0
-327 -462 0
-328 -463 0
-329 -464 0
-330 -465 0
-336 -446 0
-337 -447 0
-338 -448 0
-339 -449 0
-340 -450 0
-341 -396 0
-342 -397 0
-343 -398 0
-344 -399 0
-345 -400 0
-346 -381 0
-347 -382 0
-348 -383 0
-349 -384 0
-350 -385 0
-351 -471 0
-352 -472 0
-353 -473 0
-354 -474 0
-355 -475 0
-351 -476 0
-352 -477 0
-353 -478 0
-354 -479 0
-355 -480 0
-356 -391 0
-357 -392 0
-358 -393 0
-359 -394 0
-360 -395 0
-366 -391 0
-367 -392 0
-368 -393 0
-369 -394 0
-370 -395 0
-366 -401 0
-367 -402 0
-368 -403 0
-369 -404 0
-370 -405 0
-366 -421 0
-367 -422 0
-368 -423 0
-369 -424 0
-370 -425 0
-366 -446 0
-367 -447 0
-368 -448 0
-369 -449 0
-370 -450 0
-366 -451 0
-367 -452 0
-368 -453 0
-369 -454 0
-370 -455 0
-371 -411 0
-372 -412 0
-373 -413 0
-374 -414 0
-375 -415 0
-371 -426 0
-372 -427 0
-373 -428 0
-374 -429 0
-375 -430 0
-386 -431 0
-387 -432 0
-388 -433 0
-389 -434 0
-390 -435 0
-386 -476 0
-387 -477 0
-388 -478 0
-389 -479 0
-390 -480 0
-391 -481 0
-392 -482 0
-393 -483 0
-394 -484 0
-395 -485 0
-396 -431 0
-397 -432 0
-398 -433 0
-399 -434 0
-400 -435 0
-406 -446 0
-407 -447 0
-408 -448 0
-409 -449 0
-410 -450 0
-406 -466 0
-407 -467 0
-408 -468 0
-409 -469 0
-410 -470 0
-411 -436 0
-412 -437 0
-413 -438 0
-414 -439 0
-415 -440 0
-411 -491 0
-412 -492 0
-413 -493 0
-414 -494 0
-415 -495 0
-416 -446 0
-417 -447 0
-418 -448 0
-419 -449 0
-420 -450 0
-421 -451 0
-422 -452 0
-423 -453 0
-424 -454 0
-425 -455 0
-426 -486 0
-427 -487 0
-428 -488 0
-429 -489 0
-430 -490 0
-431 -456 0
-432 -457 0
-433 -458 0
-434 -459 0
-435 -460 0
-441 -486 0
-442 -487 0
-443 -488 0
-444 -489 0
-445 -490 0
